p edge 20 55 8
v 4 4 5 6 20
v 1 11
v 2 12 19
v 1 16
v 3 1 9 15
v 5 3 8 13 14 17
v 1 18
v 3 2 7 10
e 1 3
e 1 4
e 1 9
e 1 13
e 1 15
e 1 19
e 2 6
e 2 9
e 2 10
e 2 13
e 3 9
e 3 10
e 3 16
e 3 17
e 3 19
e 3 20
e 4 9
e 4 12
e 4 14
e 5 8
e 5 10
e 5 16
e 6 8
e 6 12
e 6 13
e 6 14
e 7 9
e 7 15
e 8 9
e 8 11
e 8 12
e 8 20
e 9 11
e 9 12
e 9 18
e 9 19
e 10 11
e 10 13
e 10 18
e 10 19
e 11 17
e 11 18
e 12 13
e 12 14
e 12 15
e 12 17
e 12 19
e 12 20
e 13 15
e 14 18
e 14 20
e 15 16
e 15 18
e 15 19
e 17 19
